p cnf 469 557
1 0
-3 0
-6 0
-10 0
15 0
-21 0
28 0
-36 0
-45 0
55 0
66 0
78 0
91 0
105 0
-137 4 0
-154 4 0
-172 7 0
-191 7 0
-211 4 0
-211 11 0
-211 16 0
-232 7 0
-232 16 0
-232 29 0
-254 4 0
-254 16 0
-254 37 0
-277 7 0
-277 16 0
-277 56 0
-301 4 0
-301 22 0
-326 7 0
-326 22 0
-352 4 0
-352 46 0
-379 7 0
-379 46 0
-155 8 0
-173 8 0
-192 12 0
-212 12 0
-233 8 0
-233 17 0
-233 23 0
-255 12 0
-255 23 0
-255 38 0
-278 8 0
-278 23 0
-278 47 0
-302 12 0
-302 23 0
-302 68 0
-327 8 0
-327 30 0
-353 12 0
-353 30 0
-380 8 0
-380 57 0
-408 12 0
-408 57 0
-174 13 0
-193 13 0
-213 18 0
-234 18 0
-256 13 0
-256 24 0
-256 31 0
-279 18 0
-279 31 0
-279 48 0
-303 13 0
-303 31 0
-303 58 0
-328 18 0
-328 31 0
-328 81 0
-354 13 0
-354 39 0
-381 18 0
-381 39 0
-409 13 0
-409 69 0
-438 18 0
-438 69 0
-194 19 0
-214 19 0
-235 25 0
-257 25 0
-280 19 0
-280 32 0
-280 40 0
-304 25 0
-304 40 0
-304 59 0
-329 19 0
-329 40 0
-329 70 0
-355 25 0
-355 40 0
-355 95 0
-382 19 0
-382 49 0
-410 25 0
-410 49 0
-439 19 0
-439 82 0
-469 25 0
-469 82 0
-137 8 0
-137 -8 0
-154 12 0
-154 -8 0
-172 8 0
-172 -12 0
-191 12 0
-191 -12 0
-211 30 0
-211 -17 0
-211 -23 0
-232 30 0
-232 -23 0
-232 -38 0
-254 57 0
-254 -23 0
-254 -47 0
-277 57 0
-277 -23 0
-277 -68 0
-301 17 0
-301 23 0
-301 -30 0
-326 23 0
-326 38 0
-326 -30 0
-352 23 0
-352 47 0
-352 -57 0
-379 23 0
-379 68 0
-379 -57 0
-155 13 0
-155 -13 0
-173 18 0
-173 -13 0
-192 13 0
-192 -18 0
-212 18 0
-212 -18 0
-233 39 0
-233 -24 0
-233 -31 0
-255 39 0
-255 -31 0
-255 -48 0
-278 69 0
-278 -31 0
-278 -58 0
-302 69 0
-302 -31 0
-302 -81 0
-327 24 0
-327 31 0
-327 -39 0
-353 31 0
-353 48 0
-353 -39 0
-380 31 0
-380 58 0
-380 -69 0
-408 31 0
-408 81 0
-408 -69 0
-174 19 0
-174 -19 0
-193 25 0
-193 -19 0
-213 19 0
-213 -25 0
-234 25 0
-234 -25 0
-256 49 0
-256 -32 0
-256 -40 0
-279 49 0
-279 -40 0
-279 -59 0
-303 82 0
-303 -40 0
-303 -70 0
-328 82 0
-328 -40 0
-328 -95 0
-354 32 0
-354 40 0
-354 -49 0
-381 40 0
-381 59 0
-381 -49 0
-409 40 0
-409 70 0
-409 -82 0
-438 40 0
-438 95 0
-438 -82 0
-194 26 0
-194 -26 0
-214 33 0
-214 -26 0
-235 26 0
-235 -33 0
-257 33 0
-257 -33 0
-280 60 0
-280 -41 0
-280 -50 0
-304 60 0
-304 -50 0
-304 -71 0
-329 96 0
-329 -50 0
-329 -83 0
-355 96 0
-355 -50 0
-355 -110 0
-382 41 0
-382 50 0
-382 -60 0
-410 50 0
-410 71 0
-410 -60 0
-439 50 0
-439 83 0
-439 -96 0
-469 50 0
-469 110 0
-469 -96 0
4 -8 137 172 0
-4 8 137 154 0
7 -12 154 191 0
-7 12 172 191 0
11 -17 301 0
-11 17 211 0
16 -23 301 326 352 379 0
-16 23 211 232 254 277 0
22 -30 211 232 0
-22 30 301 326 0
29 -38 326 0
-29 38 232 0
37 -47 352 0
-37 47 254 0
46 -57 254 277 0
-46 57 352 379 0
56 -68 379 0
-56 68 277 0
8 -13 155 192 0
-8 13 155 173 0
12 -18 173 212 0
-12 18 192 212 0
17 -24 327 0
-17 24 233 0
23 -31 327 353 380 408 0
-23 31 233 255 278 302 0
30 -39 233 255 0
-30 39 327 353 0
38 -48 353 0
-38 48 255 0
47 -58 380 0
-47 58 278 0
57 -69 278 302 0
-57 69 380 408 0
68 -81 408 0
-68 81 302 0
13 -19 174 213 0
-13 19 174 193 0
18 -25 193 234 0
-18 25 213 234 0
24 -32 354 0
-24 32 256 0
31 -40 354 381 409 438 0
-31 40 256 279 303 328 0
39 -49 256 279 0
-39 49 354 381 0
48 -59 381 0
-48 59 279 0
58 -70 409 0
-58 70 303 0
69 -82 303 328 0
-69 82 409 438 0
81 -95 438 0
-81 95 328 0
-137 -154 0
-137 -172 0
-137 -191 0
-137 -211 0
-137 -232 0
-137 -254 0
-137 -277 0
-137 -301 0
-137 -326 0
-137 -352 0
-137 -379 0
-154 -172 0
-154 -191 0
-154 -211 0
-154 -232 0
-154 -254 0
-154 -277 0
-154 -301 0
-154 -326 0
-154 -352 0
-154 -379 0
-172 -191 0
-172 -211 0
-172 -232 0
-172 -254 0
-172 -277 0
-172 -301 0
-172 -326 0
-172 -352 0
-172 -379 0
-191 -211 0
-191 -232 0
-191 -254 0
-191 -277 0
-191 -301 0
-191 -326 0
-191 -352 0
-191 -379 0
-211 -232 0
-211 -254 0
-211 -277 0
-211 -301 0
-211 -326 0
-211 -352 0
-211 -379 0
-232 -254 0
-232 -277 0
-232 -301 0
-232 -326 0
-232 -352 0
-232 -379 0
-254 -277 0
-254 -301 0
-254 -326 0
-254 -352 0
-254 -379 0
-277 -301 0
-277 -326 0
-277 -352 0
-277 -379 0
-301 -326 0
-301 -352 0
-301 -379 0
-326 -352 0
-326 -379 0
-352 -379 0
-155 -173 0
-155 -192 0
-155 -212 0
-155 -233 0
-155 -255 0
-155 -278 0
-155 -302 0
-155 -327 0
-155 -353 0
-155 -380 0
-155 -408 0
-173 -192 0
-173 -212 0
-173 -233 0
-173 -255 0
-173 -278 0
-173 -302 0
-173 -327 0
-173 -353 0
-173 -380 0
-173 -408 0
-192 -212 0
-192 -233 0
-192 -255 0
-192 -278 0
-192 -302 0
-192 -327 0
-192 -353 0
-192 -380 0
-192 -408 0
-212 -233 0
-212 -255 0
-212 -278 0
-212 -302 0
-212 -327 0
-212 -353 0
-212 -380 0
-212 -408 0
-233 -255 0
-233 -278 0
-233 -302 0
-233 -327 0
-233 -353 0
-233 -380 0
-233 -408 0
-255 -278 0
-255 -302 0
-255 -327 0
-255 -353 0
-255 -380 0
-255 -408 0
-278 -302 0
-278 -327 0
-278 -353 0
-278 -380 0
-278 -408 0
-302 -327 0
-302 -353 0
-302 -380 0
-302 -408 0
-327 -353 0
-327 -380 0
-327 -408 0
-353 -380 0
-353 -408 0
-380 -408 0
-174 -193 0
-174 -213 0
-174 -234 0
-174 -256 0
-174 -279 0
-174 -303 0
-174 -328 0
-174 -354 0
-174 -381 0
-174 -409 0
-174 -438 0
-193 -213 0
-193 -234 0
-193 -256 0
-193 -279 0
-193 -303 0
-193 -328 0
-193 -354 0
-193 -381 0
-193 -409 0
-193 -438 0
-213 -234 0
-213 -256 0
-213 -279 0
-213 -303 0
-213 -328 0
-213 -354 0
-213 -381 0
-213 -409 0
-213 -438 0
-234 -256 0
-234 -279 0
-234 -303 0
-234 -328 0
-234 -354 0
-234 -381 0
-234 -409 0
-234 -438 0
-256 -279 0
-256 -303 0
-256 -328 0
-256 -354 0
-256 -381 0
-256 -409 0
-256 -438 0
-279 -303 0
-279 -328 0
-279 -354 0
-279 -381 0
-279 -409 0
-279 -438 0
-303 -328 0
-303 -354 0
-303 -381 0
-303 -409 0
-303 -438 0
-328 -354 0
-328 -381 0
-328 -409 0
-328 -438 0
-354 -381 0
-354 -409 0
-354 -438 0
-381 -409 0
-381 -438 0
-409 -438 0
-194 -214 0
-194 -235 0
-194 -257 0
-194 -280 0
-194 -304 0
-194 -329 0
-194 -355 0
-194 -382 0
-194 -410 0
-194 -439 0
-194 -469 0
-214 -235 0
-214 -257 0
-214 -280 0
-214 -304 0
-214 -329 0
-214 -355 0
-214 -382 0
-214 -410 0
-214 -439 0
-214 -469 0
-235 -257 0
-235 -280 0
-235 -304 0
-235 -329 0
-235 -355 0
-235 -382 0
-235 -410 0
-235 -439 0
-235 -469 0
-257 -280 0
-257 -304 0
-257 -329 0
-257 -355 0
-257 -382 0
-257 -410 0
-257 -439 0
-257 -469 0
-280 -304 0
-280 -329 0
-280 -355 0
-280 -382 0
-280 -410 0
-280 -439 0
-280 -469 0
-304 -329 0
-304 -355 0
-304 -382 0
-304 -410 0
-304 -439 0
-304 -469 0
-329 -355 0
-329 -382 0
-329 -410 0
-329 -439 0
-329 -469 0
-355 -382 0
-355 -410 0
-355 -439 0
-355 -469 0
-382 -410 0
-382 -439 0
-382 -469 0
-410 -439 0
-410 -469 0
-439 -469 0
95 0
